(declare-fun bvlambda_27_ ()Bool         )
(declare-fun bvlambda_29_ () (_ BitVec 6))
(declare-fun a85 () (Array (_ BitVec 1) (_ BitVec 4)))
(assert
(let (($e2 (_ bv5810 14)))
(let (($e7 (_ bv0 2)))
(let (($e329 (concat $e7 bvlambda_27_)))
(let (($e330 (concat $e329 bvlambda_27_)))
(let (($e331 (concat $e330 $e329       )))
(let (($e332 (concat $e331 bvlambda_29_)))
(let (($e333 (concat $e332 bvlambda_27_)))
(let (($e334 (bvand $e2 $e333)))
(let (($e335 (bvand (bvnot $e2) (bvnot $e333))))
(let (($e336 (bvand (bvnot $e335) (bvnot $e334))))
(let (($e362 ((_ extract 13 13) $e336)))
(let (($e386 (store a85 true        $e330)))
(let (($e387 (select $e386 (bvnot $e362))))
             (   extract      $e387)
                                                                                                                                                                                                                                                                                                                                                                                                                                                                                                                                                                                                                                                                                                                                                                                                                                                                                                                                                                                                                                                                                                                                                                                      ))                       )                         ))))))))                                                                                                                                                                                                                                                                                      )    ) )
